c 
c G(n,p) graph
c graph gen seed     : 4010
c number of vertices : 60
c max number of edges: 1770
c edge probability   : 0.200000
c data structure     : sparse
c
c           Graph Stats
c number of vertices  : 60
c nonisolated vertices: 60
c number of edges     : 363
c edge density        : 0.205085
c max degree          : 19
c avg degree          : 12.10
c min degree          : 6
p col 60 363
e 1 60
e 1 55
e 1 51
e 1 40
e 1 33
e 1 32
e 1 29
e 1 27
e 1 26
e 1 24
e 1 18
e 1 10
e 2 59
e 2 55
e 2 54
e 2 38
e 2 32
e 2 31
e 2 28
e 2 25
e 2 19
e 2 12
e 3 60
e 3 57
e 3 55
e 3 54
e 3 52
e 3 40
e 3 34
e 3 30
e 3 20
e 3 19
e 3 9
e 4 60
e 4 59
e 4 56
e 4 54
e 4 51
e 4 45
e 4 40
e 4 39
e 4 37
e 4 31
e 4 29
e 4 25
e 4 10
e 5 60
e 5 59
e 5 55
e 5 47
e 5 43
e 5 37
e 5 34
e 5 33
e 5 30
e 5 26
e 5 15
e 5 14
e 6 60
e 6 57
e 6 46
e 6 36
e 6 32
e 6 28
e 6 17
e 6 7
e 7 58
e 7 53
e 7 48
e 7 43
e 7 38
e 7 33
e 7 26
e 7 23
e 7 18
e 7 15
e 8 46
e 8 25
e 8 22
e 8 20
e 8 17
e 8 12
e 8 11
e 9 46
e 9 39
e 9 38
e 9 35
e 9 31
e 9 29
e 9 28
e 9 15
e 10 54
e 10 52
e 10 51
e 10 50
e 10 48
e 10 47
e 10 45
e 10 42
e 10 40
e 10 39
e 10 36
e 10 35
e 10 28
e 10 25
e 10 24
e 10 15
e 10 12
e 11 60
e 11 57
e 11 56
e 11 46
e 11 43
e 11 40
e 11 34
e 11 33
e 11 31
e 11 28
e 11 20
e 11 18
e 11 17
e 12 43
e 12 39
e 12 36
e 12 30
e 12 15
e 12 14
e 13 58
e 13 57
e 13 54
e 13 39
e 13 38
e 13 37
e 13 31
e 13 29
e 13 28
e 13 21
e 13 14
e 14 56
e 14 49
e 14 48
e 14 40
e 14 33
e 14 31
e 14 30
e 14 24
e 14 23
e 14 22
e 14 19
e 14 16
e 15 59
e 15 50
e 15 48
e 15 46
e 15 40
e 15 38
e 15 31
e 15 29
e 15 26
e 15 20
e 15 18
e 16 58
e 16 54
e 16 52
e 16 49
e 16 43
e 16 36
e 16 29
e 16 28
e 16 26
e 16 24
e 16 20
e 17 58
e 17 54
e 17 52
e 17 40
e 17 38
e 17 34
e 18 60
e 18 50
e 18 49
e 18 41
e 18 35
e 18 34
e 18 31
e 18 24
e 18 20
e 19 57
e 19 54
e 19 49
e 19 48
e 19 46
e 19 41
e 20 53
e 20 50
e 20 43
e 20 31
e 20 25
e 21 58
e 21 56
e 21 49
e 21 44
e 21 41
e 21 33
e 22 58
e 22 57
e 22 53
e 22 50
e 22 44
e 22 41
e 22 39
e 22 38
e 22 36
e 22 32
e 22 31
e 22 29
e 23 59
e 23 58
e 23 55
e 23 37
e 23 31
e 24 45
e 24 34
e 24 32
e 24 25
e 25 59
e 25 57
e 25 55
e 25 54
e 25 51
e 25 44
e 25 42
e 25 28
e 26 44
e 26 32
e 27 58
e 27 52
e 27 48
e 27 32
e 27 29
e 28 55
e 28 49
e 28 43
e 28 37
e 28 34
e 28 32
e 28 30
e 29 60
e 29 51
e 29 50
e 29 47
e 29 46
e 29 41
e 29 38
e 29 36
e 29 30
e 30 60
e 30 56
e 30 54
e 30 53
e 30 51
e 30 48
e 30 42
e 30 40
e 30 35
e 30 32
e 31 59
e 31 56
e 31 46
e 31 44
e 31 35
e 31 34
e 32 58
e 32 57
e 32 52
e 32 46
e 32 43
e 32 41
e 32 35
e 33 57
e 33 53
e 33 45
e 34 60
e 34 59
e 34 58
e 34 51
e 34 50
e 34 49
e 34 45
e 34 43
e 34 37
e 35 60
e 35 52
e 35 50
e 35 38
e 36 57
e 36 54
e 36 53
e 36 48
e 36 47
e 36 46
e 36 45
e 36 42
e 36 37
e 37 60
e 37 56
e 37 53
e 37 50
e 38 55
e 38 54
e 38 41
e 39 59
e 39 53
e 39 52
e 39 47
e 40 58
e 40 57
e 40 46
e 41 59
e 41 58
e 41 44
e 42 60
e 42 58
e 42 57
e 42 51
e 42 48
e 43 57
e 43 50
e 43 48
e 43 47
e 43 44
e 44 60
e 44 59
e 44 48
e 45 59
e 45 58
e 45 57
e 46 57
e 46 47
e 47 58
e 47 56
e 48 50
e 48 49
e 49 57
e 49 54
e 49 51
e 50 60
e 50 55
e 50 52
e 51 58
e 51 56
e 51 54
e 51 52
e 52 57
e 52 56
e 52 55
e 53 59
e 53 56
e 54 58
e 55 59
e 55 57
e 55 56
e 58 60
